# Solution for model r5_t18_m1_6 Batch Number: 2
# Finished Task: 18 / 18
# Makespan: 530.0, Total Distance: 384.0, Total Time: 1.9470
# R O S F Batch
0 0 19 0.0 0.0 -1
1 1 21 0.0 0.0 -1
2 2 7 0.0 0.0 -1
3 3 11 0.0 0.0 -1
4 4 20 0.0 0.0 -1
5 0 -1 382.0 421.0 0
6 1 9 387.0 407.0 1
7 2 8 147.0 172.0 0
8 2 12 262.0 290.0 0
9 1 14 421.0 453.0 1
10 2 16 475.0 502.0 1
11 3 17 364.0 397.0 0
12 2 15 332.0 367.0 0
13 4 -1 309.0 331.0 1
14 1 -1 502.0 530.0 1
15 2 10 407.0 432.0 1
16 2 -1 502.0 528.0 1
17 3 -1 407.0 428.0 1
18 4 13 273.0 309.0 1
19 0 5 334.0 364.0 0
20 4 18 93.0 117.0 0
21 1 22 311.0 332.0 0
22 1 6 346.0 368.0 1
